(set-option :produce-models true)
(set-logic QF_UF)
(declare-fun p11() Bool)
(declare-fun p8() Bool)
(declare-fun p12() Bool)
(declare-fun p5() Bool)
(declare-fun p13() Bool)
(declare-fun p14() Bool)
(declare-fun p10() Bool)
(declare-fun p6() Bool)
(declare-fun p0() Bool)
(declare-fun p9() Bool)
(declare-fun p1() Bool)
(declare-fun p2() Bool)
(declare-fun p4() Bool)
(declare-fun p7() Bool)
(declare-fun p3() Bool)
(assert
(and (or p11 p8 (not p12)) (or p5 (not p13) (not p14)) (or (not p10) p8 p6) (or p11 p8 (not p0)) (or p0 p13 p0) (or (not p9) p11 p0) (or (not p8) (not p13) (not p1)) (or p0 (not p6) (not p9)) (or p8 p10 (not p10)) (or p14 p8 (not p0)) (or p2 (not p13) (not p4)) (or p9 p14 p11) (or p11 (not p5) (not p2)) (or (not p9) (not p8) (not p12)) (or p10 (not p8) p4) (or p6 (not p5) p5) (or (not p4) (not p7) (not p1)) (or (not p11) (not p5) p3) (or p10 (not p4) p9) (or p6 (not p0) p4) (or (not p10) (not p7) p10) (or p1 p10 p6) (or (not p9) (not p5) p7) (or (not p4) (not p1) (not p9)) (or p9 p5 (not p1)) (or p2 p4 (not p14)) (or (not p4) (not p6) p0) (or p1 p1 p14) (or p6 p6 p5) (or (not p11) p9 p3) (or p6 p8 p4) (or (not p6) (not p12) p14) (or p11 p0 p0) (or p0 p6 (not p0)) (or (not p4) p3 p4) (or (not p14) p7 p0) (or (not p5) (not p7) p7) (or p2 (not p0) p9) (or (not p14) (not p0) p4) (or (not p10) p7 (not p1)) (or p13 p0 p14) (or (not p12) p1 p2) (or p1 (not p5) p13) (or p1 p9 (not p5)) (or p9 p12 p13) (or p7 (not p14) p2) (or p14 p11 (not p0)) (or p5 p6 p11) (or (not p5) (not p8) (not p5)) (or (not p3) p10 (not p10)) (or (not p5) (not p8) (not p0)) (or (not p1) p2 p4) (or (not p5) p14 (not p6)) (or p6 p1 (not p10)) (or p9 p8 (not p2)) (or p13 (not p2) p11) (or (not p6) p11 p10) (or (not p1) (not p9) (not p5)) (or p0 p8 p11) (or (not p7) (not p2) (not p11)) (or p9 p1 (not p9)) (or p0 p13 (not p7)) (or (not p3) (not p5) (not p5)) (or p8 p12 (not p1)) (or p7 (not p1) (not p4)) (or p14 p11 (not p7)) (or p1 p1 p10) (or p0 (not p10) p10) (or (not p5) (not p11) (not p1)))
)
(check-sat)
(get-model)
